letting n =  10
letting blocks =  [[1, 1], [1, 3], [1, 8], [1, 9], [2, 6], [2, 7], [2, 8], [3, 1], [3, 2], [3, 6], [4, 8], [5, 1], [5, 7], [5, 9], [6, 2], [6, 3], [6, 7], [6, 8], [7, 1], [7, 2], [8, 3], [8, 4], [8, 5], [8, 9], [9, 1], [9, 2], [9, 4], [9, 7], [9, 8], [10, 1], [10, 4], [10, 6], [10, 7], [10, 9]]
